experiment/data/lkh-res/Vrp-Set-X-n228/Vrp-Set-X-n228-lkh/0.lkh1.vrp
NAME : 0
COMMENT : CVRP Instance
TYPE : CVRP
DIMENSION : 228
EDGE_WEIGHT_TYPE : EUC_2D
CAPACITY : 154
NODE_COORD_SECTION
1	55000	57400
2	17700	2400
3	44800	47600
4	93400	61900
5	32300	12200
6	43000	7600
7	36400	900
8	98800	99400
9	9100	63600
10	93800	64100
11	97900	76400
12	400	74800
13	42000	16400
14	29400	1500
15	30400	8900
16	36200	20700
17	77000	34400
18	6700	63400
19	9000	4400
20	71200	41800
21	29900	600
22	99700	87100
23	3800	69500
24	83000	100000
25	91600	62200
26	44500	10700
27	31400	22200
28	29200	51900
29	18300	34400
30	52000	43400
31	26200	28300
32	99600	90200
33	11500	15800
34	37100	6100
35	97100	35200
36	44800	48400
37	29900	8900
38	40200	14700
39	53700	43100
40	38900	4800
41	18600	2200
42	65800	50500
43	45900	52800
44	95600	90000
45	48600	38300
46	3600	65100
47	99400	71300
48	27000	10000
49	94400	60600
50	81300	91700
51	31800	4200
52	1700	36900
53	39800	28000
54	7400	76000
55	91000	62300
56	9600	60400
57	43200	9600
58	18800	1700
59	44100	48000
60	45800	12400
61	55700	62000
62	19600	5100
63	25300	13700
64	95300	65800
65	38900	0
66	38600	12700
67	14000	68300
68	29300	7500
69	47500	38600
70	22400	48700
71	29900	15700
72	55600	34600
73	36600	11000
74	68100	86400
75	22000	9700
76	38200	14000
77	26600	8800
78	44000	42300
79	16800	1900
80	61600	24400
81	27000	17700
82	12600	66600
83	33200	8500
84	23400	2600
85	83400	57100
86	4900	60200
87	24800	7400
88	8100	69600
89	30800	4300
90	91500	67500
91	50000	51800
92	51000	35300
93	32900	8600
94	83000	72400
95	99300	63400
96	95900	60000
97	99100	97300
98	41100	2500
99	38200	30300
100	47700	5800
101	22500	3100
102	43900	45600
103	12000	71000
104	46200	47100
105	10700	13400
106	97000	99500
107	42700	50100
108	93800	65000
109	37000	1600
110	46000	14000
111	26300	5900
112	52400	1900
113	41100	8900
114	95300	94400
115	7900	35700
116	75700	86700
117	34300	12100
118	36100	31600
119	40700	50800
120	41400	11700
121	57600	59100
122	54400	4400
123	41800	2700
124	83700	66000
125	17400	48700
126	16800	60100
127	85400	57500
128	61500	5200
129	19300	5100
130	45800	65900
131	95700	64100
132	5100	64700
133	13700	71400
134	20300	14000
135	38600	14600
136	97600	64900
137	52200	2600
138	28100	12100
139	45300	6900
140	39300	2500
141	34100	53200
142	46600	15300
143	50700	47200
144	94600	96300
145	32700	7800
146	30100	13500
147	25600	13900
148	99700	98000
149	34300	17300
150	86000	62200
151	15100	79800
152	31700	21100
153	41800	600
154	83300	69400
155	8300	64100
156	22900	44900
157	28300	20400
158	51300	69700
159	23200	9600
160	24700	2200
161	65100	66400
162	85700	70100
163	33700	7200
164	43900	6500
165	39800	10600
166	40900	2400
167	93100	47600
168	36800	9200
169	9700	67600
170	88000	60600
171	28100	19900
172	41000	11000
173	25200	2200
174	18100	14700
175	94500	94800
176	13500	61800
177	34800	44300
178	29600	3900
179	95300	36800
180	8100	82600
181	99700	73400
182	53300	13400
183	37200	13400
184	23100	68100
185	31700	47900
186	14300	60300
187	12200	3800
188	22000	89800
189	94600	69000
190	9500	3700
191	42900	900
192	13700	6400
193	36100	25800
194	15300	6500
195	53600	29600
196	50900	40400
197	42300	5900
198	16200	75900
199	52500	34200
200	94300	67800
201	52200	19500
202	46300	2900
203	37100	33500
204	28900	13600
205	19100	56800
206	50500	38100
207	26500	5500
208	12500	6200
209	30400	4400
210	95800	61000
211	97500	96600
212	27700	63100
213	28500	16900
214	48600	11100
215	94000	62100
216	99300	96400
217	77100	54800
218	48400	27600
219	44000	45500
220	10400	56100
221	20000	6100
222	49100	6200
223	27700	16900
224	17700	69500
225	62800	31200
226	43000	42900
227	94500	99400
228	46100	60800
DEMAND_SECTION
1	0
2	79
3	57
4	88
5	54
6	92
7	84
8	61
9	100
10	61
11	69
12	78
13	54
14	59
15	60
16	61
17	85
18	67
19	96
20	57
21	57
22	52
23	80
24	60
25	71
26	93
27	59
28	88
29	77
30	50
31	98
32	53
33	54
34	99
35	10
36	9
37	8
38	9
39	7
40	10
41	9
42	2
43	3
44	3
45	7
46	8
47	3
48	2
49	2
50	10
51	2
52	10
53	3
54	9
55	7
56	4
57	6
58	6
59	3
60	3
61	9
62	9
63	9
64	5
65	2
66	10
67	2
68	5
69	9
70	6
71	3
72	7
73	10
74	7
75	10
76	6
77	3
78	10
79	6
80	2
81	4
82	4
83	9
84	5
85	9
86	5
87	5
88	7
89	1
90	10
91	4
92	4
93	2
94	6
95	1
96	2
97	1
98	8
99	1
100	9
101	7
102	1
103	9
104	6
105	4
106	2
107	10
108	7
109	10
110	2
111	3
112	5
113	6
114	7
115	4
116	8
117	4
118	1
119	3
120	4
121	2
122	5
123	8
124	5
125	9
126	3
127	10
128	2
129	1
130	7
131	8
132	2
133	3
134	8
135	6
136	1
137	6
138	8
139	5
140	8
141	2
142	6
143	8
144	4
145	10
146	3
147	10
148	2
149	8
150	9
151	5
152	7
153	10
154	3
155	8
156	7
157	2
158	4
159	7
160	10
161	5
162	10
163	7
164	8
165	1
166	9
167	8
168	4
169	7
170	8
171	6
172	3
173	2
174	4
175	3
176	1
177	10
178	4
179	8
180	10
181	5
182	2
183	2
184	10
185	9
186	7
187	6
188	4
189	4
190	10
191	5
192	8
193	6
194	9
195	10
196	9
197	3
198	5
199	6
200	6
201	10
202	5
203	7
204	3
205	1
206	9
207	10
208	10
209	6
210	1
211	1
212	5
213	8
214	3
215	7
216	4
217	2
218	8
219	5
220	8
221	6
222	5
223	7
224	7
225	5
226	6
227	8
228	7
DEPOT_SECTION
1
-1
EOF
