experiment/data/lkh-res/Vrp-Set-X-n228/Vrp-Set-X-n228-lkh/0.lkh1.tour
NAME : 0.2591766.tour
COMMENT : Length = 2591766
COMMENT : Found by LKH-3 [Keld Helsgaun] Tue Apr  9 04:20:09 2024
TYPE : TOUR
DIMENSION : 250
TOUR_SECTION
1
13
26
142
241
30
196
206
45
69
3
36
91
230
228
130
28
185
119
107
43
232
72
195
218
16
152
27
245
217
85
127
170
49
215
4
55
150
229
135
76
183
117
15
37
68
145
93
83
163
168
73
66
38
248
212
126
186
56
9
155
132
46
86
220
205
234
24
227
106
8
148
97
216
211
144
175
114
235
42
179
35
167
96
210
95
136
131
64
200
189
47
181
11
162
154
161
236
20
17
247
51
89
209
178
21
14
207
111
77
48
204
71
99
231
176
18
23
82
67
239
53
5
146
147
63
159
75
105
33
242
201
182
214
202
191
153
65
7
109
40
113
172
120
237
104
102
219
78
226
177
156
29
115
52
125
70
141
240
25
10
108
90
124
238
203
31
157
171
81
223
213
149
193
143
233
225
80
128
122
112
137
222
100
139
164
6
57
92
249
188
198
151
180
54
12
88
169
103
133
224
184
244
138
87
173
160
84
101
58
41
79
2
129
62
221
118
246
134
194
187
190
19
208
192
174
59
243
39
199
110
60
197
123
98
166
140
34
165
250
121
94
22
32
44
50
116
74
158
61
-1
EOF
